N = 5;
H = 5;
T = 2;

avail = array3d(1..N, 1..H, 1..T, [2, 2, 6, 9, 1, 9, 6, 0, 1, 3, 3, 0, 5, 10, 7, 0, 1, 2, 1, 2, 1, 2, 0, 1, 4, 2, 2, 5, 10, 7, 1, 0, 1, 4, 1, 3, 4, 1, 10, 8, 0, 8, 6, 6, 3, 2, 10, 10, 4, 10]);

r = array2d(1..H, 1..T, [0, 1, 1, 1, 0, 1, 1, 2, 2, 1]);
